(set-logic QF_LRA)
(declare-fun fluent_started_i0_t0@0 () Bool)
(declare-fun fluent_started_i1_t0@0 () Bool)
(declare-fun fluent_started_i0_t1@0 () Bool)
(declare-fun fluent_started_i1_t1@0 () Bool)
(declare-fun fluent_started_i0_t2@0 () Bool)
(declare-fun fluent_ready_i0_t0@0 () Bool)
(declare-fun fluent_ready_i1_t0@0 () Bool)
(declare-fun fluent_ready_i0_t1@0 () Bool)
(declare-fun fluent_ready_i1_t1@0 () Bool)
(declare-fun fluent_ready_i0_t2@0 () Bool)
(declare-fun fluent_ready_i1_t2@0 () Bool)
(declare-fun fluent_counter_t0@1 () Real)
(declare-fun fluent_started_i1_t2@0 () Bool)
(declare-fun fluent_counter_t1@1 () Real)
(declare-fun fluent_busy_@0 () Bool)
(declare-fun fluent_counter_t2@1 () Real)
(declare-fun fluent_treated_i0_t0@0 () Bool)
(declare-fun fluent_treated_i1_t0@0 () Bool)
(declare-fun fluent_treated_i0_t1@0 () Bool)
(declare-fun fluent_treated_i1_t1@0 () Bool)
(declare-fun fluent_treated_i0_t2@0 () Bool)
(declare-fun fluent_treated_i1_t2@0 () Bool)
(declare-fun fluent_busy_@1 () Bool)
(declare-fun fluent_started_i0_t0@1 () Bool)
(declare-fun fluent_started_i1_t0@1 () Bool)
(declare-fun fluent_started_i0_t1@1 () Bool)
(declare-fun fluent_started_i1_t1@1 () Bool)
(declare-fun fluent_started_i0_t2@1 () Bool)
(declare-fun fluent_started_i1_t2@1 () Bool)
(declare-fun fluent_counter_t0@0 () Real)
(declare-fun fluent_counter_t1@0 () Real)
(declare-fun fluent_treated_i0_t0@1 () Bool)
(declare-fun fluent_treated_i1_t0@1 () Bool)
(declare-fun fluent_counter_t2@0 () Real)
(declare-fun fluent_treated_i0_t1@1 () Bool)
(declare-fun fluent_treated_i1_t1@1 () Bool)
(declare-fun fluent_treated_i0_t2@1 () Bool)
(declare-fun fluent_treated_i1_t2@1 () Bool)
(declare-fun dur_make_treatment@1 () Real)
(declare-fun t@1 () Real)
(declare-fun fluent_ready_i0_t0@1 () Bool)
(declare-fun fluent_ready_i1_t0@1 () Bool)
(declare-fun parameter_make_treatment_t@1 () Real)
(declare-fun fluent_ready_i0_t1@1 () Bool)
(declare-fun fluent_ready_i1_t1@1 () Bool)
(declare-fun fluent_ready_i0_t2@1 () Bool)
(declare-fun parameter_make_treatment_i@1 () Real)
(declare-fun fluent_ready_i1_t2@1 () Bool)
(declare-fun act_make_treatment@1 () Bool)
(declare-fun parameter_make_treatment_next@1 () Real)
(assert (let ((.def_0 (<= fluent_counter_t2@1 31.0))) (let ((.def_1 (<= 0.0 fluent_counter_t2@1))) (let ((.def_2 (<= fluent_counter_t1@1 31.0))) (let ((.def_3 (<= 0.0 fluent_counter_t1@1))) (let ((.def_4 (<= fluent_counter_t0@1 31.0))) (let ((.def_5 (<= 0.0 fluent_counter_t0@1))) (let ((.def_6 (= parameter_make_treatment_i@1 1.0))) (let ((.def_7 (= parameter_make_treatment_i@1 0.0))) (let ((.def_8 (or .def_7 .def_6))) (let ((.def_9 (= parameter_make_treatment_next@1 4.0))) (let ((.def_10 (= parameter_make_treatment_next@1 3.0))) (let ((.def_11 (= parameter_make_treatment_next@1 2.0))) (let ((.def_12 (or .def_11 .def_10 .def_9))) (let ((.def_13 (= parameter_make_treatment_t@1 4.0))) (let ((.def_14 (= parameter_make_treatment_t@1 3.0))) (let ((.def_15 (= parameter_make_treatment_t@1 2.0))) (let ((.def_16 (or .def_15 .def_14 .def_13))) (let ((.def_17 (and act_make_treatment@1 true .def_13))) (let ((.def_18 (= fluent_counter_t2@0 fluent_counter_t2@1))) (let ((.def_19 (not .def_18))) (let ((.def_20 (=> .def_19 .def_17))) (let ((.def_21 (and act_make_treatment@1 true .def_14))) (let ((.def_22 (= fluent_counter_t1@0 fluent_counter_t1@1))) (let ((.def_23 (not .def_22))) (let ((.def_24 (=> .def_23 .def_21))) (let ((.def_25 (and act_make_treatment@1 true .def_15))) (let ((.def_26 (= fluent_counter_t0@0 fluent_counter_t0@1))) (let ((.def_27 (not .def_26))) (let ((.def_28 (=> .def_27 .def_25))) (let ((.def_29 (+ t@1 10.0))) (let ((.def_30 (= t@1 .def_29))) (let ((.def_31 (and act_make_treatment@1 true .def_30 .def_6 .def_9))) (let ((.def_32 (= fluent_ready_i1_t2@0 fluent_ready_i1_t2@1))) (let ((.def_33 (not .def_32))) (let ((.def_34 (=> .def_33 .def_31))) (let ((.def_35 (and act_make_treatment@1 true .def_30 .def_7 .def_9))) (let ((.def_36 (= fluent_ready_i0_t2@0 fluent_ready_i0_t2@1))) (let ((.def_37 (not .def_36))) (let ((.def_38 (=> .def_37 .def_35))) (let ((.def_39 (and act_make_treatment@1 true .def_30 .def_6 .def_10))) (let ((.def_40 (= fluent_ready_i1_t1@0 fluent_ready_i1_t1@1))) (let ((.def_41 (not .def_40))) (let ((.def_42 (=> .def_41 .def_39))) (let ((.def_43 (and act_make_treatment@1 true .def_30 .def_7 .def_10))) (let ((.def_44 (= fluent_ready_i0_t1@0 fluent_ready_i0_t1@1))) (let ((.def_45 (not .def_44))) (let ((.def_46 (=> .def_45 .def_43))) (let ((.def_47 (and act_make_treatment@1 true .def_30 .def_6 .def_11))) (let ((.def_48 (= fluent_ready_i1_t0@0 fluent_ready_i1_t0@1))) (let ((.def_49 (not .def_48))) (let ((.def_50 (=> .def_49 .def_47))) (let ((.def_51 (and act_make_treatment@1 true .def_30 .def_7 .def_11))) (let ((.def_52 (= fluent_ready_i0_t0@0 fluent_ready_i0_t0@1))) (let ((.def_53 (not .def_52))) (let ((.def_54 (=> .def_53 .def_51))) (let ((.def_55 (and act_make_treatment@1 true .def_6 .def_13))) (let ((.def_56 (= fluent_started_i1_t2@0 fluent_started_i1_t2@1))) (let ((.def_57 (not .def_56))) (let ((.def_58 (=> .def_57 .def_55))) (let ((.def_59 (and act_make_treatment@1 true .def_7 .def_13))) (let ((.def_60 (= fluent_started_i0_t2@0 fluent_started_i0_t2@1))) (let ((.def_61 (not .def_60))) (let ((.def_62 (=> .def_61 .def_59))) (let ((.def_63 (and act_make_treatment@1 true .def_6 .def_14))) (let ((.def_64 (= fluent_started_i1_t1@0 fluent_started_i1_t1@1))) (let ((.def_65 (not .def_64))) (let ((.def_66 (=> .def_65 .def_63))) (let ((.def_67 (and act_make_treatment@1 true .def_7 .def_14))) (let ((.def_68 (= fluent_started_i0_t1@0 fluent_started_i0_t1@1))) (let ((.def_69 (not .def_68))) (let ((.def_70 (=> .def_69 .def_67))) (let ((.def_71 (and act_make_treatment@1 true .def_6 .def_15))) (let ((.def_72 (= fluent_started_i1_t0@0 fluent_started_i1_t0@1))) (let ((.def_73 (not .def_72))) (let ((.def_74 (=> .def_73 .def_71))) (let ((.def_75 (and act_make_treatment@1 true .def_7 .def_15))) (let ((.def_76 (= fluent_started_i0_t0@0 fluent_started_i0_t0@1))) (let ((.def_77 (not .def_76))) (let ((.def_78 (=> .def_77 .def_75))) (let ((.def_79 (+ t@1 4.0))) (let ((.def_80 (= t@1 .def_79))) (let ((.def_81 (and act_make_treatment@1 true .def_80 .def_6 .def_13))) (let ((.def_82 (= fluent_treated_i1_t2@0 fluent_treated_i1_t2@1))) (let ((.def_83 (not .def_82))) (let ((.def_84 (=> .def_83 .def_81))) (let ((.def_85 (and act_make_treatment@1 true .def_80 .def_7 .def_13))) (let ((.def_86 (= fluent_treated_i0_t2@0 fluent_treated_i0_t2@1))) (let ((.def_87 (not .def_86))) (let ((.def_88 (=> .def_87 .def_85))) (let ((.def_89 (and act_make_treatment@1 true .def_80 .def_6 .def_14))) (let ((.def_90 (= fluent_treated_i1_t1@0 fluent_treated_i1_t1@1))) (let ((.def_91 (not .def_90))) (let ((.def_92 (=> .def_91 .def_89))) (let ((.def_93 (and act_make_treatment@1 true .def_80 .def_7 .def_14))) (let ((.def_94 (= fluent_treated_i0_t1@0 fluent_treated_i0_t1@1))) (let ((.def_95 (not .def_94))) (let ((.def_96 (=> .def_95 .def_93))) (let ((.def_97 (and act_make_treatment@1 true .def_80 .def_6 .def_15))) (let ((.def_98 (= fluent_treated_i1_t0@0 fluent_treated_i1_t0@1))) (let ((.def_99 (not .def_98))) (let ((.def_100 (=> .def_99 .def_97))) (let ((.def_101 (and act_make_treatment@1 true .def_80 .def_7 .def_15))) (let ((.def_102 (= fluent_treated_i0_t0@0 fluent_treated_i0_t0@1))) (let ((.def_103 (not .def_102))) (let ((.def_104 (=> .def_103 .def_101))) (let ((.def_105 (and act_make_treatment@1 true .def_80))) (let ((.def_106 (and act_make_treatment@1 true))) (let ((.def_107 (and .def_106 .def_105))) (let ((.def_108 (not .def_107))) (let ((.def_109 (or .def_106 .def_105))) (let ((.def_110 (= fluent_busy_@0 fluent_busy_@1))) (let ((.def_111 (not .def_110))) (let ((.def_112 (=> .def_111 .def_109))) (let ((.def_113 (and .def_112 .def_108 .def_104 .def_100 .def_96 .def_92 .def_88 .def_84 .def_78 .def_74 .def_70 .def_66 .def_62 .def_58 .def_54 .def_50 .def_46 .def_42 .def_38 .def_34 .def_28 .def_24 .def_20))) (let ((.def_114 (<= 0.0 t@1))) (let ((.def_115 (and .def_6 .def_11))) (let ((.def_116 (ite .def_115 fluent_ready_i1_t0@1 fluent_ready_i0_t0@1))) (let ((.def_117 (and .def_7 .def_10))) (let ((.def_118 (ite .def_117 fluent_ready_i0_t1@1 .def_116))) (let ((.def_119 (and .def_6 .def_10))) (let ((.def_120 (ite .def_119 fluent_ready_i1_t1@1 .def_118))) (let ((.def_121 (and .def_7 .def_9))) (let ((.def_122 (ite .def_121 fluent_ready_i0_t2@1 .def_120))) (let ((.def_123 (and .def_6 .def_9))) (let ((.def_124 (ite .def_123 fluent_ready_i1_t2@1 .def_122))) (let ((.def_125 (= .def_124 true))) (let ((.def_126 (=> true .def_125))) (let ((.def_127 (and .def_30 .def_126))) (let ((.def_128 (= fluent_busy_@1 false))) (let ((.def_129 (=> true .def_128))) (let ((.def_130 (and .def_6 .def_15))) (let ((.def_131 (ite .def_130 fluent_treated_i1_t0@1 fluent_treated_i0_t0@1))) (let ((.def_132 (and .def_7 .def_14))) (let ((.def_133 (ite .def_132 fluent_treated_i0_t1@1 .def_131))) (let ((.def_134 (and .def_6 .def_14))) (let ((.def_135 (ite .def_134 fluent_treated_i1_t1@1 .def_133))) (let ((.def_136 (and .def_7 .def_13))) (let ((.def_137 (ite .def_136 fluent_treated_i0_t2@1 .def_135))) (let ((.def_138 (and .def_6 .def_13))) (let ((.def_139 (ite .def_138 fluent_treated_i1_t2@1 .def_137))) (let ((.def_140 (= .def_139 true))) (let ((.def_141 (=> true .def_140))) (let ((.def_142 (and .def_80 .def_141 .def_129))) (let ((.def_143 (ite .def_130 fluent_started_i1_t0@1 fluent_started_i0_t0@1))) (let ((.def_144 (ite .def_132 fluent_started_i0_t1@1 .def_143))) (let ((.def_145 (ite .def_134 fluent_started_i1_t1@1 .def_144))) (let ((.def_146 (ite .def_136 fluent_started_i0_t2@1 .def_145))) (let ((.def_147 (ite .def_138 fluent_started_i1_t2@1 .def_146))) (let ((.def_148 (= .def_147 true))) (let ((.def_149 (=> true .def_148))) (let ((.def_150 (= fluent_busy_@1 true))) (let ((.def_151 (=> true .def_150))) (let ((.def_152 (ite .def_14 fluent_counter_t1@0 fluent_counter_t0@0))) (let ((.def_153 (ite .def_13 fluent_counter_t2@0 .def_152))) (let ((.def_154 (+ .def_153 1.0))) (let ((.def_155 (ite .def_14 fluent_counter_t1@1 fluent_counter_t0@1))) (let ((.def_156 (ite .def_13 fluent_counter_t2@1 .def_155))) (let ((.def_157 (= .def_156 .def_154))) (let ((.def_158 (=> true .def_157))) (let ((.def_159 (= t@1 t@1))) (let ((.def_160 (and .def_159 .def_158 .def_151 .def_149))) (let ((.def_161 (ite .def_115 fluent_started_i1_t0@0 fluent_started_i0_t0@0))) (let ((.def_162 (ite .def_117 fluent_started_i0_t1@0 .def_161))) (let ((.def_163 (ite .def_119 fluent_started_i1_t1@0 .def_162))) (let ((.def_164 (ite .def_121 fluent_started_i0_t2@0 .def_163))) (let ((.def_165 (ite .def_123 fluent_started_i1_t2@0 .def_164))) (let ((.def_166 (+ t@1 dur_make_treatment@1))) (let ((.def_167 (<= .def_166 t@1))) (let ((.def_168 (< (- 1.0) .def_166))) (let ((.def_169 (and .def_168 .def_167))) (let ((.def_170 (=> .def_169 .def_165))) (let ((.def_171 (ite .def_130 fluent_ready_i1_t0@0 fluent_ready_i0_t0@0))) (let ((.def_172 (ite .def_132 fluent_ready_i0_t1@0 .def_171))) (let ((.def_173 (ite .def_134 fluent_ready_i1_t1@0 .def_172))) (let ((.def_174 (ite .def_136 fluent_ready_i0_t2@0 .def_173))) (let ((.def_175 (ite .def_138 fluent_ready_i1_t2@0 .def_174))) (let ((.def_176 (ite .def_130 fluent_started_i1_t0@0 fluent_started_i0_t0@0))) (let ((.def_177 (ite .def_132 fluent_started_i0_t1@0 .def_176))) (let ((.def_178 (ite .def_134 fluent_started_i1_t1@0 .def_177))) (let ((.def_179 (ite .def_136 fluent_started_i0_t2@0 .def_178))) (let ((.def_180 (ite .def_138 fluent_started_i1_t2@0 .def_179))) (let ((.def_181 (not .def_180))) (let ((.def_182 (ite .def_130 fluent_treated_i1_t0@0 fluent_treated_i0_t0@0))) (let ((.def_183 (ite .def_132 fluent_treated_i0_t1@0 .def_182))) (let ((.def_184 (ite .def_134 fluent_treated_i1_t1@0 .def_183))) (let ((.def_185 (ite .def_136 fluent_treated_i0_t2@0 .def_184))) (let ((.def_186 (ite .def_138 fluent_treated_i1_t2@0 .def_185))) (let ((.def_187 (not .def_186))) (let ((.def_188 (not fluent_busy_@0))) (let ((.def_189 (and .def_14 .def_11))) (let ((.def_190 (ite .def_189 false false))) (let ((.def_191 (and .def_13 .def_11))) (let ((.def_192 (ite .def_191 false .def_190))) (let ((.def_193 (and .def_15 .def_10))) (let ((.def_194 (ite .def_193 true .def_192))) (let ((.def_195 (and .def_14 .def_10))) (let ((.def_196 (ite .def_195 false .def_194))) (let ((.def_197 (and .def_13 .def_10))) (let ((.def_198 (ite .def_197 false .def_196))) (let ((.def_199 (and .def_15 .def_9))) (let ((.def_200 (ite .def_199 false .def_198))) (let ((.def_201 (and .def_14 .def_9))) (let ((.def_202 (ite .def_201 true .def_200))) (let ((.def_203 (and .def_13 .def_9))) (let ((.def_204 (ite .def_203 false .def_202))) (let ((.def_205 (ite .def_6 1.0 0.0))) (let ((.def_206 (= .def_205 .def_153))) (let ((.def_207 (and .def_206 .def_204 .def_188 .def_187 .def_181 .def_175))) (let ((.def_208 (<= t@1 t@1))) (let ((.def_209 (< (- 1.0) t@1))) (let ((.def_210 (and .def_209 .def_208))) (let ((.def_211 (=> .def_210 .def_207))) (let ((.def_212 (<= dur_make_treatment@1 15.0))) (let ((.def_213 (<= 15.0 dur_make_treatment@1))) (let ((.def_214 (and .def_213 .def_212))) (let ((.def_215 (and .def_214 .def_167 .def_211 .def_170 .def_160 .def_142 .def_127))) (let ((.def_216 (=> act_make_treatment@1 .def_215))) (let ((.def_217 (<= fluent_counter_t2@0 31.0))) (let ((.def_218 (<= 0.0 fluent_counter_t2@0))) (let ((.def_219 (<= fluent_counter_t1@0 31.0))) (let ((.def_220 (<= 0.0 fluent_counter_t1@0))) (let ((.def_221 (<= fluent_counter_t0@0 31.0))) (let ((.def_222 (<= 0.0 fluent_counter_t0@0))) (let ((.def_223 (= fluent_counter_t2@0 0.0))) (let ((.def_224 (= fluent_counter_t1@0 0.0))) (let ((.def_225 (= fluent_counter_t0@0 0.0))) (let ((.def_226 (= false false))) (let ((.def_227 (= fluent_ready_i1_t2@0 false))) (let ((.def_228 (= fluent_ready_i0_t2@0 false))) (let ((.def_229 (= fluent_ready_i1_t1@0 false))) (let ((.def_230 (= fluent_ready_i0_t1@0 false))) (let ((.def_231 (= fluent_started_i1_t1@0 false))) (let ((.def_232 (= fluent_started_i0_t1@0 false))) (let ((.def_233 (= fluent_started_i1_t0@0 false))) (let ((.def_234 (= fluent_started_i0_t0@0 false))) (let ((.def_235 (= fluent_treated_i1_t2@0 false))) (let ((.def_236 (= fluent_treated_i0_t2@0 false))) (let ((.def_237 (= fluent_treated_i1_t1@0 false))) (let ((.def_238 (= fluent_treated_i0_t1@0 false))) (let ((.def_239 (= fluent_treated_i1_t0@0 false))) (let ((.def_240 (= fluent_treated_i0_t0@0 false))) (let ((.def_241 (= fluent_busy_@0 false))) (let ((.def_242 (= fluent_ready_i1_t0@0 true))) (let ((.def_243 (= fluent_started_i1_t2@0 true))) (let ((.def_244 (= fluent_ready_i0_t0@0 true))) (let ((.def_245 (= fluent_started_i0_t2@0 true))) (let ((.def_246 (= true true))) (let ((.def_247 (= 1.0 1.0))) (let ((.def_248 (= 0.0 0.0))) (let ((.def_249 (and .def_248 .def_247 .def_246 .def_246 .def_245 .def_244 .def_243 .def_242 .def_241 .def_240 .def_239 .def_238 .def_237 .def_236 .def_235 .def_234 .def_233 .def_232 .def_231 .def_230 .def_229 .def_228 .def_227 .def_226 .def_226 .def_226 .def_226 .def_226 .def_226 .def_226 .def_225 .def_224 .def_223 .def_222 .def_221 .def_220 .def_219 .def_218 .def_217))) (let ((.def_250 (and .def_249 .def_216 .def_114 true true .def_113 .def_16 .def_12 .def_8 .def_5 .def_4 .def_3 .def_2 .def_1 .def_0 true))) .def_250))))))))))))))))))))))))))))))))))))))))))))))))))))))))))))))))))))))))))))))))))))))))))))))))))))))))))))))))))))))))))))))))))))))))))))))))))))))))))))))))))))))))))))))))))))))))))))))))))))))))))))))))))))))))))))))))))))))))))))))))))))))))))))
(check-sat)


